p cnf 55 205
1 -2 -3 0
-1 2 -3 0
1 2 3 0
-1 -2 3 0
4 1 -5 0
-4 -1 -5 0
4 -1 5 0
-4 1 5 0
7 -5 0
7 6 0
5 -6 -7 0
9 -8 0
9 6 0
8 -6 -9 0
10 7 0
10 9 0
-7 -9 -10 0
-3 -10 -11 0
3 10 -11 0
-3 10 11 0
3 -10 11 0
12 -4 0
12 -4 0
4 -12 0
6 2 -13 0
-6 -2 -13 0
6 -2 13 0
-6 2 13 0
12 -13 -14 0
-12 13 -14 0
12 13 14 0
-12 -13 14 0
-15 14 0
-15 -13 0
-14 13 15 0
5 16 -17 0
-5 -16 -17 0
5 -16 17 0
-5 16 17 0
-18 8 0
-18 2 0
-8 -2 18 0
-14 -18 -19 0
14 18 -19 0
-14 18 19 0
14 -18 19 0
-17 -19 -20 0
17 19 -20 0
-17 19 20 0
17 -19 20 0
-21 -20 0
-21 -2 0
20 2 21 0
22 15 0
22 -21 0
-15 21 -22 0
-12 4 -25 0
12 -4 -25 0
-12 -4 25 0
12 4 25 0
-26 24 0
-26 -25 0
-24 25 26 0
-27 23 0
-27 26 0
-23 -26 27 0
-22 27 -28 0
22 -27 -28 0
-22 -27 28 0
22 27 28 0
19 -24 -29 0
-19 24 -29 0
19 24 29 0
-19 -24 29 0
30 -16 0
30 -24 0
16 24 -30 0
30 6 -31 0
-30 -6 -31 0
30 -6 31 0
-30 6 31 0
32 -17 0
32 5 0
17 -5 -32 0
12 -32 -33 0
-12 32 -33 0
12 32 33 0
-12 -32 33 0
31 33 -34 0
-31 -33 -34 0
31 -33 34 0
-31 33 34 0
29 34 -35 0
-29 -34 -35 0
29 -34 35 0
-29 34 35 0
-36 32 0
-36 -5 0
-32 5 36 0
-37 -1 -38 0
37 1 -38 0
-37 1 38 0
37 -1 38 0
-13 -38 -39 0
13 38 -39 0
-13 38 39 0
13 -38 39 0
40 37 0
40 -17 0
-37 17 -40 0
41 39 0
41 -40 0
-39 40 -41 0
42 36 0
42 -41 0
-36 41 -42 0
43 -17 0
43 -12 0
17 12 -43 0
-45 44 0
-45 44 0
-44 45 0
46 -2 0
46 -6 0
2 6 -46 0
47 -46 0
47 38 0
46 -38 -47 0
45 -47 -48 0
-45 47 -48 0
45 47 48 0
-45 -47 48 0
43 -48 -49 0
-43 48 -49 0
43 48 49 0
-43 -48 49 0
50 -44 0
50 -16 0
44 16 -50 0
-49 -50 -51 0
49 50 -51 0
-49 50 51 0
49 -50 51 0
-42 51 -52 0
42 -51 -52 0
-42 -51 52 0
42 51 52 0
53 35 0
53 -52 0
-35 52 -53 0
-54 28 0
-54 -53 0
-28 53 54 0
11 54 -55 0
-11 -54 -55 0
11 -54 55 0
-11 54 55 0
-10 55 -35 -15 -31 0
-23 4 9 0
33 -35 0
-2 16 6 -48 45 0
28 -44 9 21 0
35 48 42 -49 25 0
52 -42 -44 0
-25 -10 -53 -45 0
-17 29 31 49 50 0
2 24 -49 40 0
-4 -47 26 -8 0
21 25 45 28 -44 -13 0
38 40 14 10 42 0
45 -32 35 54 -20 0
7 -2 -19 -30 0
44 30 49 -17 25 0
-48 -47 25 16 0
44 30 0
28 7 -20 49 -34 0
26 54 9 0
7 -1 30 18 -34 28 0
32 -41 14 47 0
-53 8 -46 31 0
12 23 40 -7 -32 0
-51 -15 25 0
22 33 -49 0
35 -4 0
-42 -29 35 44 -22 14 0
21 45 42 39 -34 0
31 50 0
-14 54 -30 55 -36 -42 0
49 18 -37 -20 -41 54 0
54 37 -51 -9 -41 0
-43 -34 -49 -45 12 0
3 -21 0
-31 55 41 -13 0
-51 45 -48 0
2 -32 0
-11 -5 9 25 -10 -23 0
-11 28 -45 -19 -50 0
-49 -6 0
-27 -26 3 23 48 0
-1 13 21 0
-50 41 -3 -36 28 0
-13 -7 0
-12 3 -37 14 0
30 -45 42 55 0
55 0
